\* knapsack *\
Maximize
obj_func: 9 X_0 + 8 X_1 + 8 X_2 + 10 X_3 + 5 X_4 + 5 X_5 + 5 X_6 + 9 X_7
 + 9 X_8 + 9 X_9
Subject To
max_vol: 6 X_0 + 7 X_1 + 6 X_2 + 6 X_3 + 5 X_4 + 7 X_5 + 5 X_6 + 9 X_7
 + 10 X_8 + 4 X_9 <= 50
Bounds
0 <= X_0
0 <= X_1
0 <= X_2
0 <= X_3
0 <= X_4
0 <= X_5
0 <= X_6
0 <= X_7
0 <= X_8
0 <= X_9
Generals
X_0
X_1
X_2
X_3
X_4
X_5
X_6
X_7
X_8
X_9
End
